&FORCE_EVAL

  &PRINT


    &STRESS_TENSOR
    FILENAME ./filename
    &END

    &FORCES
    FILENAME ./filename
    &END FORCES

  &END PRINT
  METHOD Quickstep
  &DFT
    BASIS_SET_FILE_NAME BASIS_MOLOPT_UZH
    POTENTIAL_FILE_NAME GTH_POTENTIALS

    &POISSON
      POISSON_SOLVER PERIODIC
      PERIODIC XYZ
    &END POISSON

    &MGRID
        NGRIDS 5
        CUTOFF 400
        REL_CUTOFF 80

    &END MGRID
    &QS
      METHOD GPW
      EPS_PGF_ORB 1E-16

    &END QS
    &SCF
      &SMEAR ON
        ELECTRONIC_TEMPERATURE 2000
        METHOD FERMI_DIRAC
      &END SMEAR
    ADDED_MOS 3000
    CHOLESKY INVERSE
    SCF_GUESS ATOMIC
    EPS_SCF 1.0E-6
    MAX_SCF 200

      &DIAGONALIZATION  ON
        ALGORITHM STANDARD
      &END DIAGONALIZATION

      &MIXING  T
        METHOD BROYDEN_MIXING
        ALPHA 0.2
        BETA 1.5
        NBUFFER 15
      &END MIXING

    &END SCF
      &XC
        &XC_FUNCTIONAL PBE
        &END XC_FUNCTIONAL
      &END XC

  &END DFT
  &SUBSYS

    &TOPOLOGY
      MULTIPLE_UNIT_CELL 1 1 1
      COORD_FILE_FORMAT XYZ
      COORD_FILE_NAME supercell_min.xyz
    &END TOPOLOGY

    &CELL
      MULTIPLE_UNIT_CELL 1 1 1
      ABC  $ABC
      ALPHA_BETA_GAMMA $abc
      PERIODIC XYZ
    &END CELL

    &KIND Ba
      BASIS_SET DZVP-MOLOPT-PBE-GTH-q10
      POTENTIAL GTH-PBE-q10
    &END KIND

    &KIND O
      BASIS_SET DZVP-MOLOPT-PBE-GTH-q6
      POTENTIAL GTH-PBE-q6
    &END KIND

    &KIND Y
      BASIS_SET DZVP-MOLOPT-PBE-GTH-q11
      POTENTIAL GTH-PBE-q11
    &END KIND

    &KIND Cu
      BASIS_SET DZVP-MOLOPT-PBE-GTH-q11
      POTENTIAL GTH-PBE-q11
    &END KIND

  &PRINT
    &CELL HIGH

    &END CELL
  &END PRINT

  &END SUBSYS

  STRESS_TENSOR ANALYTICAL

&END FORCE_EVAL

&GLOBAL
  PROJECT     ENERGY
  RUN_TYPE    ENERGY_FORCE
  PRINT_LEVEL MEDIUM
  PREFERRED_DIAG_LIBRARY SL
&END GLOBAL
